n_mines = 4;
n_maxwork = 3;
royalty = [5000000.0, 4000000.0, 4000000.0, 5000000.0];
limit = [2000000.0, 2500000.0, 1300000.0, 3000000.0];
quality = [1.0, 0.7, 1.5, 0.5];
requiredquality = [0.9, 0.8, 1.2, 0.6, 1.0];
price = 10;
discount = 0.1;